;(set-option :produce-unsat-cores true )
(set-logic ALL_SUPPORTED )
(declare-sort A$ 0 )
(declare-sort B$ 0 )
(declare-sort Nat$ 0 )
(declare-sort A_set$ 0 )
(declare-sort B_set$ 0 )
(declare-sort A_bool_fun$ 0 )
(declare-sort B_bool_fun$ 0 )
(declare-sort A_a_bool_fun_fun$ 0 )
(declare-sort A_b_bool_fun_fun$ 0 )
(declare-sort A_llist_bool_fun$ 0 )
(declare-sort B_a_bool_fun_fun$ 0 )
(declare-sort B_b_bool_fun_fun$ 0 )
(declare-sort B_llist_bool_fun$ 0 )
(declare-sort A_llist_a_llist_fun$ 0 )
(declare-sort B_llist_b_llist_fun$ 0 )
(declare-sort A_llist_a_llist_bool_fun_fun$ 0 )
(declare-sort B_llist_b_llist_bool_fun_fun$ 0 )
(declare-sort A_llist$ 0)
(declare-sort B_llist$ 0)
(declare-fun lNil$ ()A_llist$)
(declare-fun lhd$ (A_llist$)A$)
(declare-fun ltl$ (A_llist$)A_llist$)
(declare-fun lCons$ (A$ A_llist$ )A_llist$)
(declare-fun lNil$a ()B_llist$)
(declare-fun lhd$a (B_llist$)B$)
(declare-fun ltl$a (B_llist$)B_llist$)
(declare-fun lCons$a (B$ B_llist$ )B_llist$)
(declare-datatypes ()((Nat_option$ (none$ )(some$ (the$ Nat$ )))(Enat$ (abs_enat$ (rep_enat$ Nat_option$ )))))
(declare-fun p$ ()A_b_bool_fun_fun$ )
(declare-fun q1$ ()A_bool_fun$ )
(declare-fun q2$ ()B_bool_fun$ )
(declare-fun uu$ ()A_a_bool_fun_fun$ )
(declare-fun xs$ ()A_llist$ )
(declare-fun ys$ ()B_llist$ )
(declare-fun uua$ ()A_llist_a_llist_bool_fun_fun$ )
(declare-fun uub$ ()B_b_bool_fun_fun$ )
(declare-fun uuc$ ()B_llist_b_llist_bool_fun_fun$ )
(declare-fun lset$ (A_llist$ )A_set$ )
(declare-fun ldrop$ (Enat$ A_llist$ )A_llist$ )
(declare-fun lnull$ (A_llist$ )Bool )
(declare-fun lset$a (B_llist$ )B_set$ )
(declare-fun ldrop$a (Enat$ B_llist$ )B_llist$ )
(declare-fun ldropn$ (Nat$ A_llist$ )A_llist$ )
(declare-fun lnull$a (B_llist$ )Bool )
(declare-fun member$ (A$ A_set$ )Bool )
(declare-fun fun_app$ (B_llist_bool_fun$ B_llist$ )Bool )
(declare-fun ldropn$a (Nat$ B_llist$ )B_llist$ )
(declare-fun member$a (B$ B_set$ )Bool )
(declare-fun fun_app$a (B_llist_b_llist_bool_fun_fun$ B_llist$ )B_llist_bool_fun$ )
(declare-fun fun_app$b (A_llist_bool_fun$ A_llist$ )Bool )
(declare-fun fun_app$c (A_llist_a_llist_bool_fun_fun$ A_llist$ )A_llist_bool_fun$ )
(declare-fun fun_app$d (B_bool_fun$ B$ )Bool )
(declare-fun fun_app$e (B_b_bool_fun_fun$ B$ )B_bool_fun$ )
(declare-fun fun_app$f (A_bool_fun$ A$ )Bool )
(declare-fun fun_app$g (A_a_bool_fun_fun$ A$ )A_bool_fun$ )
(declare-fun fun_app$h (A_llist_a_llist_fun$ A_llist$ )A_llist$ )
(declare-fun fun_app$i (B_llist_b_llist_fun$ B_llist$ )B_llist$ )
(declare-fun fun_app$j (A_b_bool_fun_fun$ A$ )B_bool_fun$ )
(declare-fun fun_app$k (B_a_bool_fun_fun$ B$ )A_bool_fun$ )
(declare-fun ldropWhile$ (A_bool_fun$ )A_llist_a_llist_fun$ )
(declare-fun llist_all2$ (A_b_bool_fun_fun$ A_llist$ )B_llist_bool_fun$ )
(declare-fun ldropWhile$a (B_bool_fun$ )B_llist_b_llist_fun$ )
(declare-fun llist_all2$a (A_a_bool_fun_fun$ )A_llist_a_llist_bool_fun_fun$ )
(declare-fun llist_all2$b (B_b_bool_fun_fun$ )B_llist_b_llist_bool_fun_fun$ )
(declare-fun llist_all2$c (B_a_bool_fun_fun$ B_llist$ )A_llist_bool_fun$ )
(assert (! (forall ((?v0 B_llist$ )(?v1 B_llist$ ))(! (= (fun_app$ (fun_app$a uuc$ ?v0 )?v1 )(= ?v0 ?v1 )):pattern ((fun_app$ (fun_app$a uuc$ ?v0 )?v1 )))):named a0 ))
(assert (! (forall ((?v0 A_llist$ )(?v1 A_llist$ ))(! (= (fun_app$b (fun_app$c uua$ ?v0 )?v1 )(= ?v0 ?v1 )):pattern ((fun_app$b (fun_app$c uua$ ?v0 )?v1 )))):named a1 ))
(assert (! (forall ((?v0 B$ )(?v1 B$ ))(! (= (fun_app$d (fun_app$e uub$ ?v0 )?v1 )(= ?v0 ?v1 )):pattern ((fun_app$d (fun_app$e uub$ ?v0 )?v1 )))):named a2 ))
(assert (! (forall ((?v0 A$ )(?v1 A$ ))(! (= (fun_app$f (fun_app$g uu$ ?v0 )?v1 )(= ?v0 ?v1 )):pattern ((fun_app$f (fun_app$g uu$ ?v0 )?v1 )))):named a3 ))
(assert (! (not (fun_app$ (llist_all2$ p$ (fun_app$h (ldropWhile$ q1$ )xs$ ))(fun_app$i (ldropWhile$a q2$ )ys$ ))):named a4 ))
(assert (! (fun_app$ (llist_all2$ p$ xs$ )ys$ ):named a5 ))
(assert (! (forall ((?v0 A$ )(?v1 B$ ))(=> (fun_app$d (fun_app$j p$ ?v0 )?v1 )(= (fun_app$f q1$ ?v0 )(fun_app$d q2$ ?v1 )))):named a6 ))
(assert (! (= (llist_all2$a uu$ )uua$ ):named a7 ))
(assert (! (= (llist_all2$b uub$ )uuc$ ):named a8 ))
(assert (! (forall ((?v0 A_a_bool_fun_fun$ )(?v1 A_llist$ )(?v2 A_llist$ )(?v3 A_a_bool_fun_fun$ ))(=> (and (fun_app$b (fun_app$c (llist_all2$a ?v0 )?v1 )?v2 )(forall ((?v4 A$ )(?v5 A$ ))(=> (fun_app$f (fun_app$g ?v0 ?v4 )?v5 )(fun_app$f (fun_app$g ?v3 ?v4 )?v5 ))))(fun_app$b (fun_app$c (llist_all2$a ?v3 )?v1 )?v2 ))):named a9 ))
(assert (! (forall ((?v0 B_a_bool_fun_fun$ )(?v1 B_llist$ )(?v2 A_llist$ )(?v3 B_a_bool_fun_fun$ ))(=> (and (fun_app$b (llist_all2$c ?v0 ?v1 )?v2 )(forall ((?v4 B$ )(?v5 A$ ))(=> (fun_app$f (fun_app$k ?v0 ?v4 )?v5 )(fun_app$f (fun_app$k ?v3 ?v4 )?v5 ))))(fun_app$b (llist_all2$c ?v3 ?v1 )?v2 ))):named a10 ))
(assert (! (forall ((?v0 B_b_bool_fun_fun$ )(?v1 B_llist$ )(?v2 B_llist$ )(?v3 B_b_bool_fun_fun$ ))(=> (and (fun_app$ (fun_app$a (llist_all2$b ?v0 )?v1 )?v2 )(forall ((?v4 B$ )(?v5 B$ ))(=> (fun_app$d (fun_app$e ?v0 ?v4 )?v5 )(fun_app$d (fun_app$e ?v3 ?v4 )?v5 ))))(fun_app$ (fun_app$a (llist_all2$b ?v3 )?v1 )?v2 ))):named a11 ))
(assert (! (forall ((?v0 A_b_bool_fun_fun$ )(?v1 A_llist$ )(?v2 B_llist$ )(?v3 A_b_bool_fun_fun$ ))(=> (and (fun_app$ (llist_all2$ ?v0 ?v1 )?v2 )(forall ((?v4 A$ )(?v5 B$ ))(=> (fun_app$d (fun_app$j ?v0 ?v4 )?v5 )(fun_app$d (fun_app$j ?v3 ?v4 )?v5 ))))(fun_app$ (llist_all2$ ?v3 ?v1 )?v2 ))):named a12 ))
(assert (! (forall ((?v0 A_bool_fun$ ))(! (= (fun_app$h (ldropWhile$ ?v0 )lNil$ )lNil$ ):pattern ((ldropWhile$ ?v0 )))):named a13 ))
(assert (! (forall ((?v0 B_bool_fun$ ))(! (= (fun_app$i (ldropWhile$a ?v0 )lNil$a )lNil$a ):pattern ((ldropWhile$a ?v0 )))):named a14 ))
(assert (! (forall ((?v0 A_bool_fun$ )(?v1 A$ )(?v2 A_llist$ ))(! (= (fun_app$h (ldropWhile$ ?v0 )(lCons$ ?v1 ?v2 ))(ite (fun_app$f ?v0 ?v1 )(fun_app$h (ldropWhile$ ?v0 )?v2 )(lCons$ ?v1 ?v2 ))):pattern ((fun_app$h (ldropWhile$ ?v0 )(lCons$ ?v1 ?v2 ))))):named a15 ))
(assert (! (forall ((?v0 B_bool_fun$ )(?v1 B$ )(?v2 B_llist$ ))(! (= (fun_app$i (ldropWhile$a ?v0 )(lCons$a ?v1 ?v2 ))(ite (fun_app$d ?v0 ?v1 )(fun_app$i (ldropWhile$a ?v0 )?v2 )(lCons$a ?v1 ?v2 ))):pattern ((fun_app$i (ldropWhile$a ?v0 )(lCons$a ?v1 ?v2 ))))):named a16 ))
(assert (! (forall ((?v0 B_b_bool_fun_fun$ )(?v1 B_llist$ ))(! (= (fun_app$ (fun_app$a (llist_all2$b ?v0 )?v1 )lNil$a )(= ?v1 lNil$a )):pattern ((fun_app$a (llist_all2$b ?v0 )?v1 )))):named a17 ))
(assert (! (forall ((?v0 B_a_bool_fun_fun$ )(?v1 B_llist$ ))(! (= (fun_app$b (llist_all2$c ?v0 ?v1 )lNil$ )(= ?v1 lNil$a )):pattern ((llist_all2$c ?v0 ?v1 )))):named a18 ))
(assert (! (forall ((?v0 A_a_bool_fun_fun$ )(?v1 A_llist$ ))(! (= (fun_app$b (fun_app$c (llist_all2$a ?v0 )?v1 )lNil$ )(= ?v1 lNil$ )):pattern ((fun_app$c (llist_all2$a ?v0 )?v1 )))):named a19 ))
(assert (! (forall ((?v0 A_b_bool_fun_fun$ )(?v1 A_llist$ ))(! (= (fun_app$ (llist_all2$ ?v0 ?v1 )lNil$a )(= ?v1 lNil$ )):pattern ((llist_all2$ ?v0 ?v1 )))):named a20 ))
(assert (! (forall ((?v0 B_b_bool_fun_fun$ )(?v1 B_llist$ ))(! (= (fun_app$ (fun_app$a (llist_all2$b ?v0 )lNil$a )?v1 )(= ?v1 lNil$a )):pattern ((fun_app$ (fun_app$a (llist_all2$b ?v0 )lNil$a )?v1 )))):named a21 ))
(assert (! (forall ((?v0 B_a_bool_fun_fun$ )(?v1 A_llist$ ))(! (= (fun_app$b (llist_all2$c ?v0 lNil$a )?v1 )(= ?v1 lNil$ )):pattern ((fun_app$b (llist_all2$c ?v0 lNil$a )?v1 )))):named a22 ))
(assert (! (forall ((?v0 A_a_bool_fun_fun$ )(?v1 A_llist$ ))(! (= (fun_app$b (fun_app$c (llist_all2$a ?v0 )lNil$ )?v1 )(= ?v1 lNil$ )):pattern ((fun_app$b (fun_app$c (llist_all2$a ?v0 )lNil$ )?v1 )))):named a23 ))
(assert (! (forall ((?v0 A_b_bool_fun_fun$ )(?v1 B_llist$ ))(! (= (fun_app$ (llist_all2$ ?v0 lNil$ )?v1 )(= ?v1 lNil$a )):pattern ((fun_app$ (llist_all2$ ?v0 lNil$ )?v1 )))):named a24 ))
(assert (! (forall ((?v0 B_b_bool_fun_fun$ )(?v1 B$ )(?v2 B_llist$ )(?v3 B$ )(?v4 B_llist$ ))(! (= (fun_app$ (fun_app$a (llist_all2$b ?v0 )(lCons$a ?v1 ?v2 ))(lCons$a ?v3 ?v4 ))(and (fun_app$d (fun_app$e ?v0 ?v1 )?v3 )(fun_app$ (fun_app$a (llist_all2$b ?v0 )?v2 )?v4 ))):pattern ((fun_app$ (fun_app$a (llist_all2$b ?v0 )(lCons$a ?v1 ?v2 ))(lCons$a ?v3 ?v4 ))))):named a25 ))
(assert (! (forall ((?v0 B_a_bool_fun_fun$ )(?v1 B$ )(?v2 B_llist$ )(?v3 A$ )(?v4 A_llist$ ))(! (= (fun_app$b (llist_all2$c ?v0 (lCons$a ?v1 ?v2 ))(lCons$ ?v3 ?v4 ))(and (fun_app$f (fun_app$k ?v0 ?v1 )?v3 )(fun_app$b (llist_all2$c ?v0 ?v2 )?v4 ))):pattern ((fun_app$b (llist_all2$c ?v0 (lCons$a ?v1 ?v2 ))(lCons$ ?v3 ?v4 ))))):named a26 ))
(assert (! (forall ((?v0 A_a_bool_fun_fun$ )(?v1 A$ )(?v2 A_llist$ )(?v3 A$ )(?v4 A_llist$ ))(! (= (fun_app$b (fun_app$c (llist_all2$a ?v0 )(lCons$ ?v1 ?v2 ))(lCons$ ?v3 ?v4 ))(and (fun_app$f (fun_app$g ?v0 ?v1 )?v3 )(fun_app$b (fun_app$c (llist_all2$a ?v0 )?v2 )?v4 ))):pattern ((fun_app$b (fun_app$c (llist_all2$a ?v0 )(lCons$ ?v1 ?v2 ))(lCons$ ?v3 ?v4 ))))):named a27 ))
(assert (! (forall ((?v0 A_b_bool_fun_fun$ )(?v1 A$ )(?v2 A_llist$ )(?v3 B$ )(?v4 B_llist$ ))(! (= (fun_app$ (llist_all2$ ?v0 (lCons$ ?v1 ?v2 ))(lCons$a ?v3 ?v4 ))(and (fun_app$d (fun_app$j ?v0 ?v1 )?v3 )(fun_app$ (llist_all2$ ?v0 ?v2 )?v4 ))):pattern ((fun_app$ (llist_all2$ ?v0 (lCons$ ?v1 ?v2 ))(lCons$a ?v3 ?v4 ))))):named a28 ))
(assert (! (forall ((?v0 A_a_bool_fun_fun$ )(?v1 A_llist$ )(?v2 A_llist$ )(?v3 Nat$ ))(=> (fun_app$b (fun_app$c (llist_all2$a ?v0 )?v1 )?v2 )(fun_app$b (fun_app$c (llist_all2$a ?v0 )(ldropn$ ?v3 ?v1 ))(ldropn$ ?v3 ?v2 )))):named a29 ))
(assert (! (forall ((?v0 B_a_bool_fun_fun$ )(?v1 B_llist$ )(?v2 A_llist$ )(?v3 Nat$ ))(=> (fun_app$b (llist_all2$c ?v0 ?v1 )?v2 )(fun_app$b (llist_all2$c ?v0 (ldropn$a ?v3 ?v1 ))(ldropn$ ?v3 ?v2 )))):named a30 ))
(assert (! (forall ((?v0 B_b_bool_fun_fun$ )(?v1 B_llist$ )(?v2 B_llist$ )(?v3 Nat$ ))(=> (fun_app$ (fun_app$a (llist_all2$b ?v0 )?v1 )?v2 )(fun_app$ (fun_app$a (llist_all2$b ?v0 )(ldropn$a ?v3 ?v1 ))(ldropn$a ?v3 ?v2 )))):named a31 ))
(assert (! (forall ((?v0 A_b_bool_fun_fun$ )(?v1 A_llist$ )(?v2 B_llist$ )(?v3 Nat$ ))(=> (fun_app$ (llist_all2$ ?v0 ?v1 )?v2 )(fun_app$ (llist_all2$ ?v0 (ldropn$ ?v3 ?v1 ))(ldropn$a ?v3 ?v2 )))):named a32 ))
(assert (! (forall ((?v0 A_a_bool_fun_fun$ )(?v1 A_llist$ )(?v2 A_llist$ )(?v3 Enat$ ))(=> (fun_app$b (fun_app$c (llist_all2$a ?v0 )?v1 )?v2 )(fun_app$b (fun_app$c (llist_all2$a ?v0 )(ldrop$ ?v3 ?v1 ))(ldrop$ ?v3 ?v2 )))):named a33 ))
(assert (! (forall ((?v0 B_a_bool_fun_fun$ )(?v1 B_llist$ )(?v2 A_llist$ )(?v3 Enat$ ))(=> (fun_app$b (llist_all2$c ?v0 ?v1 )?v2 )(fun_app$b (llist_all2$c ?v0 (ldrop$a ?v3 ?v1 ))(ldrop$ ?v3 ?v2 )))):named a34 ))
(assert (! (forall ((?v0 B_b_bool_fun_fun$ )(?v1 B_llist$ )(?v2 B_llist$ )(?v3 Enat$ ))(=> (fun_app$ (fun_app$a (llist_all2$b ?v0 )?v1 )?v2 )(fun_app$ (fun_app$a (llist_all2$b ?v0 )(ldrop$a ?v3 ?v1 ))(ldrop$a ?v3 ?v2 )))):named a35 ))
(assert (! (forall ((?v0 A_b_bool_fun_fun$ )(?v1 A_llist$ )(?v2 B_llist$ )(?v3 Enat$ ))(=> (fun_app$ (llist_all2$ ?v0 ?v1 )?v2 )(fun_app$ (llist_all2$ ?v0 (ldrop$ ?v3 ?v1 ))(ldrop$a ?v3 ?v2 )))):named a36 ))
(assert (! (forall ((?v0 A_llist$ )(?v1 A_llist$ )(?v2 A_bool_fun$ )(?v3 A_bool_fun$ ))(=> (and (= ?v0 ?v1 )(forall ((?v4 A$ ))(=> (member$ ?v4 (lset$ ?v1 ))(= (fun_app$f ?v2 ?v4 )(fun_app$f ?v3 ?v4 )))))(= (fun_app$h (ldropWhile$ ?v2 )?v0 )(fun_app$h (ldropWhile$ ?v3 )?v1 )))):named a37 ))
(assert (! (forall ((?v0 B_llist$ )(?v1 B_llist$ )(?v2 B_bool_fun$ )(?v3 B_bool_fun$ ))(=> (and (= ?v0 ?v1 )(forall ((?v4 B$ ))(=> (member$a ?v4 (lset$a ?v1 ))(= (fun_app$d ?v2 ?v4 )(fun_app$d ?v3 ?v4 )))))(= (fun_app$i (ldropWhile$a ?v2 )?v0 )(fun_app$i (ldropWhile$a ?v3 )?v1 )))):named a38 ))
(assert (! (forall ((?v0 A$ )(?v1 A_bool_fun$ )(?v2 A_llist$ ))(=> (member$ ?v0 (lset$ (fun_app$h (ldropWhile$ ?v1 )?v2 )))(member$ ?v0 (lset$ ?v2 )))):named a39 ))
(assert (! (forall ((?v0 B$ )(?v1 B_bool_fun$ )(?v2 B_llist$ ))(=> (member$a ?v0 (lset$a (fun_app$i (ldropWhile$a ?v1 )?v2 )))(member$a ?v0 (lset$a ?v2 )))):named a40 ))
(assert (! (forall ((?v0 B_b_bool_fun_fun$ ))(fun_app$ (fun_app$a (llist_all2$b ?v0 )lNil$a )lNil$a )):named a41 ))
(assert (! (forall ((?v0 B_a_bool_fun_fun$ ))(fun_app$b (llist_all2$c ?v0 lNil$a )lNil$ )):named a42 ))
(assert (! (forall ((?v0 A_a_bool_fun_fun$ ))(fun_app$b (fun_app$c (llist_all2$a ?v0 )lNil$ )lNil$ )):named a43 ))
(assert (! (forall ((?v0 A_b_bool_fun_fun$ ))(fun_app$ (llist_all2$ ?v0 lNil$ )lNil$a )):named a44 ))
(assert (! (forall ((?v0 A_a_bool_fun_fun$ )(?v1 A_llist$ )(?v2 A_llist$ ))(=> (fun_app$b (fun_app$c (llist_all2$a ?v0 )?v1 )?v2 )(= (lnull$ ?v1 )(lnull$ ?v2 )))):named a45 ))
(assert (! (forall ((?v0 B_a_bool_fun_fun$ )(?v1 B_llist$ )(?v2 A_llist$ ))(=> (fun_app$b (llist_all2$c ?v0 ?v1 )?v2 )(= (lnull$a ?v1 )(lnull$ ?v2 )))):named a46 ))
(assert (! (forall ((?v0 B_b_bool_fun_fun$ )(?v1 B_llist$ )(?v2 B_llist$ ))(=> (fun_app$ (fun_app$a (llist_all2$b ?v0 )?v1 )?v2 )(= (lnull$a ?v1 )(lnull$a ?v2 )))):named a47 ))
(assert (! (forall ((?v0 A_b_bool_fun_fun$ )(?v1 A_llist$ )(?v2 B_llist$ ))(=> (fun_app$ (llist_all2$ ?v0 ?v1 )?v2 )(= (lnull$ ?v1 )(lnull$a ?v2 )))):named a48 ))
(assert (! (forall ((?v0 B_b_bool_fun_fun$ )(?v1 B$ )(?v2 B_llist$ )(?v3 B_llist$ ))(= (fun_app$ (fun_app$a (llist_all2$b ?v0 )(lCons$a ?v1 ?v2 ))?v3 )(exists ((?v4 B$ )(?v5 B_llist$ ))(and (= ?v3 (lCons$a ?v4 ?v5 ))(and (fun_app$d (fun_app$e ?v0 ?v1 )?v4 )(fun_app$ (fun_app$a (llist_all2$b ?v0 )?v2 )?v5 )))))):named a49 ))
(assert (! (forall ((?v0 B_a_bool_fun_fun$ )(?v1 B$ )(?v2 B_llist$ )(?v3 A_llist$ ))(= (fun_app$b (llist_all2$c ?v0 (lCons$a ?v1 ?v2 ))?v3 )(exists ((?v4 A$ )(?v5 A_llist$ ))(and (= ?v3 (lCons$ ?v4 ?v5 ))(and (fun_app$f (fun_app$k ?v0 ?v1 )?v4 )(fun_app$b (llist_all2$c ?v0 ?v2 )?v5 )))))):named a50 ))
(assert (! (forall ((?v0 A_a_bool_fun_fun$ )(?v1 A$ )(?v2 A_llist$ )(?v3 A_llist$ ))(= (fun_app$b (fun_app$c (llist_all2$a ?v0 )(lCons$ ?v1 ?v2 ))?v3 )(exists ((?v4 A$ )(?v5 A_llist$ ))(and (= ?v3 (lCons$ ?v4 ?v5 ))(and (fun_app$f (fun_app$g ?v0 ?v1 )?v4 )(fun_app$b (fun_app$c (llist_all2$a ?v0 )?v2 )?v5 )))))):named a51 ))
(assert (! (forall ((?v0 A_b_bool_fun_fun$ )(?v1 A$ )(?v2 A_llist$ )(?v3 B_llist$ ))(= (fun_app$ (llist_all2$ ?v0 (lCons$ ?v1 ?v2 ))?v3 )(exists ((?v4 B$ )(?v5 B_llist$ ))(and (= ?v3 (lCons$a ?v4 ?v5 ))(and (fun_app$d (fun_app$j ?v0 ?v1 )?v4 )(fun_app$ (llist_all2$ ?v0 ?v2 )?v5 )))))):named a52 ))
(assert (! (forall ((?v0 B$ )(?v1 B_llist$ )(?v2 B$ )(?v3 B_llist$ ))(= (= (lCons$a ?v0 ?v1 )(lCons$a ?v2 ?v3 ))(and (= ?v0 ?v2 )(= ?v1 ?v3 )))):named a53 ))
(assert (! (forall ((?v0 A$ )(?v1 A_llist$ )(?v2 A$ )(?v3 A_llist$ ))(= (= (lCons$ ?v0 ?v1 )(lCons$ ?v2 ?v3 ))(and (= ?v0 ?v2 )(= ?v1 ?v3 )))):named a54 ))
(check-sat )
;(get-unsat-core )
